/*********************************************
 * OPL 12.6.0.0 Data
 * Author: Adrian Rodriguez Bazaga, Pau Rodriguez Esmerats
 * Creation Date: 06/12/2017 at 23:02:53
 *********************************************/

nNurses=65;
maxConsec=2;
maxPresence=7;
maxHours=5;
minHours=1;
hours=24;
demand= [13 10 12 18 10 12 18 10 8 8 1 3 1 4 2 4 1 1 1 1 9 19 11 13  ];
